# hf/sto-3g     ! 执行路径部分，此部分不区分大小写

0 1     ! 电荷 自旋多重度
 O                  0.00000000    0.00000000    0.12713100      ! 坐标信息
 H                  0.00000000    0.75801600   -0.50852400
 H                  0.00000000   -0.75801600   -0.50852400


